33D32945 STP File, STP Format Version 1.0

SECTION Comments
Name "edge_n12_d3_s10"
Problem "Euclidean Steiner Tree Problem"
Remark "Generated with STPGenerator. 3 dimensions."
END

SECTION Graph
Nodes 12
END

SECTION Coordinates
DDD 0 0.5658107323 0.5658107323 0.5658107323
DDD 1 0.6109299178 0.6109299178 0.6109299178
DDD 2 0.5057680786 0.5057680786 0.5057680786
DDD 3 0.1796468744 0.1796468744 0.1796468744
DDD 4 0.8166862739 0.8166862739 0.8166862739
DDD 5 0.1834716542 0.1834716542 0.1834716542
DDD 6 0.5846529620 0.5846529620 0.5846529620
DDD 7 0.4221560766 0.4221560766 0.4221560766
DDD 8 0.0253341845 0.0253341845 0.0253341845
DDD 9 0.3162595943 0.3162595943 0.3162595943
DDD 10 0.0612761933 0.0612761933 0.0612761933
DDD 11 0.0836590180 0.0836590180 0.0836590180
END
